(set-logic QF_NRA_ODE)

(declare-fun x_a () Real)
(declare-fun x_b () Real)
(declare-fun P () Real)

(assert (and 
    (= x_a 0.9)
    (= x_b 1.1)
    (>= P 0.0)
    (>= 1.0 P)
    (= P (* (/ (- 1.1 0.9) 6) (+ (+ (/ (exp (/ (^ (- x_a 0.0) 2) (* 10.0 -2.0))) (^ (* 10.0 (* 3.1415926 2.0)) 0.5)) (* 4 (/ (exp (/ (^ (- (/ (+ x_a x_b) 2) 0.0) 2) (* 10.0 -2.0))) (^ (* 10.0 (* 3.1415926 2.0)) 0.5)))) (/ (exp (/ (^ (- x_b 0.0) 2) (* 10.0 -2.0))) (^ (* 10.0 (* 3.1415926 2.0)) 0.5)))))
))

(check-sat)
(exit)